(declare-fun c_ack!76 () (_ BitVec 64))
(declare-fun d_ack!77 () (_ BitVec 64))
(declare-fun a_ack!78 () (_ BitVec 64))
(declare-fun b_ack!75 () (_ BitVec 64))
(declare-fun FPCHECK_FSUB_ACCURACY ((_ BitVec 64) (_ BitVec 64)) Bool)
(assert (not (fp.lt ((_ to_fp 11 53) c_ack!76) ((_ to_fp 11 53) #x0000000000000000))))
(assert (not (fp.geq (fp.abs ((_ to_fp 11 53) d_ack!77))
             ((_ to_fp 11 53) #x3ff0000000000000))))
(assert (not (fp.eq ((_ to_fp 11 53) c_ack!76) ((_ to_fp 11 53) #x0000000000000000))))
(assert (fp.lt (fp.abs ((_ to_fp 11 53) d_ack!77)) ((_ to_fp 11 53) #x3fd0000000000000)))
(assert (fp.lt (fp.abs ((_ to_fp 11 53) a_ack!78)) ((_ to_fp 11 53) #x4034000000000000)))
(assert (not (fp.lt (fp.abs ((_ to_fp 11 53) b_ack!75))
            ((_ to_fp 11 53) #x4034000000000000))))
(assert (fp.gt ((_ to_fp 11 53) c_ack!76) ((_ to_fp 11 53) #x0000000000000000)))
(assert (not (fp.gt ((_ to_fp 11 53) d_ack!77) ((_ to_fp 11 53) #x0000000000000000))))
(assert (fp.lt (fp.abs ((_ to_fp 11 53) a_ack!78)) ((_ to_fp 11 53) #x4024000000000000)))
(assert (not (fp.lt (fp.abs ((_ to_fp 11 53) b_ack!75))
            ((_ to_fp 11 53) #x4024000000000000))))
(assert (fp.lt ((_ to_fp 11 53) d_ack!77) ((_ to_fp 11 53) #x0000000000000000)))
(assert (FPCHECK_FSUB_ACCURACY #x8000000000000000 d_ack!77))

(check-sat)
(exit)
